c File: instances/20_0.20_1.col
c
c Description: Random graph of size 20 vertices and P(0.2) of edges between any two vertices.
p col 20 190
e 1 7
e 1 11
e 1 12
e 1 16
e 1 20
e 2 8
e 2 13
e 2 14
e 2 18
e 3 12
e 3 15
e 3 18
e 4 8
e 4 16
e 5 8
e 5 12
e 5 15
e 6 9
e 6 11
e 6 14
e 6 15
e 6 16
e 6 17
e 7 9
e 7 10
e 7 16
e 7 17
e 7 19
e 8 10
e 8 13
e 9 12
e 9 13
e 9 14
e 9 15
e 9 17
e 9 19
e 9 20
e 10 18
e 11 12
e 12 17
e 13 17
e 13 19
e 16 18